# Objective value = 0.4
L_8 0
L_9 0
L_10 0
L_11 0
L_12 0
L_13 0
L_14 0
L_15 0
d_1 1
d_2 1
d_3 1
d_4 1
d_5 0
d_6 0
d_7 0
a_0_1 1
a_1_1 0
a_2_1 0
a_3_1 0
b_1 1
a_0_2 1
a_1_2 0
a_2_2 0
a_3_2 0
b_2 0.5
a_0_3 0
a_1_3 0
a_2_3 0
a_3_3 1
b_3 1
a_0_4 0
a_1_4 0
a_2_4 1
a_3_4 0
b_4 5.0000000000000067e-01
a_0_5 0
a_1_5 0
a_2_5 0
a_3_5 0
b_5 0
a_0_6 0
a_1_6 0
a_2_6 0
a_3_6 0
b_6 0
a_0_7 0
a_1_7 0
a_2_7 0
a_3_7 0
b_7 0
z_0_8 1
l_8 1
z_1_8 1
z_2_8 0
z_3_8 0
z_4_8 0
z_5_8 0
z_6_8 0
z_7_8 1
z_8_8 0
z_9_8 0
z_10_8 0
z_11_8 0
z_12_8 0
z_13_8 0
z_0_9 0
l_9 1
z_1_9 0
z_2_9 0
z_3_9 0
z_4_9 0
z_5_9 0
z_6_9 0
z_7_9 0
z_8_9 1
z_9_9 0
z_10_9 1
z_11_9 0
z_12_9 0
z_13_9 0
z_0_10 0
l_10 0
z_1_10 0
z_2_10 0
z_3_10 0
z_4_10 0
z_5_10 0
z_6_10 0
z_7_10 0
z_8_10 0
z_9_10 0
z_10_10 0
z_11_10 0
z_12_10 0
z_13_10 0
z_0_11 0
l_11 1
z_1_11 0
z_2_11 1
z_3_11 0
z_4_11 0
z_5_11 0
z_6_11 1
z_7_11 0
z_8_11 0
z_9_11 0
z_10_11 0
z_11_11 1
z_12_11 1
z_13_11 0
z_0_12 0
l_12 0
z_1_12 0
z_2_12 0
z_3_12 0
z_4_12 0
z_5_12 0
z_6_12 0
z_7_12 0
z_8_12 0
z_9_12 0
z_10_12 0
z_11_12 0
z_12_12 0
z_13_12 0
z_0_13 0
l_13 1
z_1_13 0
z_2_13 0
z_3_13 1
z_4_13 1
z_5_13 0
z_6_13 0
z_7_13 0
z_8_13 0
z_9_13 1
z_10_13 0
z_11_13 0
z_12_13 0
z_13_13 0
z_0_14 0
l_14 0
z_1_14 0
z_2_14 0
z_3_14 0
z_4_14 0
z_5_14 0
z_6_14 0
z_7_14 0
z_8_14 0
z_9_14 0
z_10_14 0
z_11_14 0
z_12_14 0
z_13_14 0
z_0_15 0
l_15 1
z_1_15 0
z_2_15 0
z_3_15 0
z_4_15 0
z_5_15 1
z_6_15 0
z_7_15 0
z_8_15 0
z_9_15 0
z_10_15 0
z_11_15 0
z_12_15 0
z_13_15 1
N_0_8 3
N_0_9 0
N_0_10 0
N_0_11 0
N_0_12 0
N_0_13 0
N_0_14 0
N_0_15 2
N_1_8 0
N_1_9 2
N_1_10 0
N_1_11 4
N_1_12 0
N_1_13 3
N_1_14 0
N_1_15 0
N_8 3
N_9 2
N_10 0
N_11 4
N_12 0
N_13 3
N_14 0
N_15 2
c_0_8 1
c_1_8 0
c_0_9 0
c_1_9 1
c_0_10 0
c_1_10 0
c_0_11 0
c_1_11 1
c_0_12 0
c_1_12 0
c_0_13 0
c_1_13 1
c_0_14 0
c_1_14 0
c_0_15 1
c_1_15 0
